 VARIABLES = X,Y,Z,DU1,DU2,DU3,U1,U2,U3,S11,S22,S33,S12,S13,S23
 ZONE, T="0.1000D+01" F=FEPOINT, I=   12 J=    2 ET=BRICK
   0.0000000000E+00   0.0000000000E+00   0.0000000000E+00   0.0000000000E+00   0.0000000000E+00   0.0000000000E+00   0.0000000000E+00   0.0000000000E+00   0.0000000000E+00   0.5000000008E+01   0.2257858513E-11   0.2534833467E-11  -0.1363383970E-15   0.4916246313E-12   0.3086603078E-12
   0.1050000000E+01   0.0000000000E+00   0.1183298251E-13   0.5000000000E-01   0.0000000000E+00   0.1183298251E-13   0.0000000000E+00   0.0000000000E+00   0.0000000000E+00   0.5000000008E+01  -0.4748064947E-12  -0.6120869460E-12   0.5656121152E-14   0.2020269048E-12   0.1141694591E-13
   0.1050000000E+01   0.9750500000E+00   0.1217342199E-13   0.5000000000E-01  -0.2495000000E-01   0.1217342199E-13   0.0000000000E+00   0.0000000000E+00   0.0000000000E+00   0.5000000007E+01   0.5892402381E-12   0.4699784241E-12   0.1403543045E-13   0.4379588149E-14   0.1097182527E-13
   0.0000000000E+00   0.9750500000E+00   0.9254749744E-14   0.0000000000E+00  -0.2495000000E-01   0.9254749744E-14   0.0000000000E+00   0.0000000000E+00   0.0000000000E+00   0.5000000007E+01   0.9967616791E-13   0.3676418036E-12   0.1107353096E-12   0.1453399436E-12   0.3021077889E-12
   0.0000000000E+00   0.0000000000E+00   0.9750500000E+00   0.0000000000E+00   0.0000000000E+00  -0.2495000000E-01   0.0000000000E+00   0.0000000000E+00   0.0000000000E+00   0.5000000007E+01  -0.5908414728E-13   0.9240716811E-13   0.1164100889E-15   0.3672024809E-12   0.2955290529E-12
   0.1050000000E+01   0.0000000000E+00   0.9750500000E+00   0.5000000000E-01   0.0000000000E+00  -0.2495000000E-01   0.0000000000E+00   0.0000000000E+00   0.0000000000E+00   0.5000000007E+01  -0.4831689907E-12  -0.6024308047E-12   0.6921706672E-14   0.1835313654E-12   0.1337298746E-13
   0.1050000000E+01   0.9750500000E+00   0.9750500000E+00   0.5000000000E-01  -0.2495000000E-01  -0.2495000000E-01   0.0000000000E+00   0.0000000000E+00   0.0000000000E+00   0.5000000007E+01   0.4103475107E-12   0.3091043340E-12   0.2195643444E-13  -0.2247703542E-14   0.1333964458E-13
   0.0000000000E+00   0.9750500000E+00   0.9750500000E+00   0.0000000000E+00  -0.2495000000E-01  -0.2495000000E-01   0.0000000000E+00   0.0000000000E+00   0.0000000000E+00   0.5000000007E+01  -0.1620410694E-11  -0.1477928696E-11   0.1171179904E-12   0.3898844834E-13   0.2884282190E-12
   0.2100000000E+01   0.0000000000E+00   0.1203021325E-13   0.1000000000E+00   0.0000000000E+00   0.1203021325E-13   0.0000000000E+00   0.0000000000E+00   0.0000000000E+00   0.5000000008E+01  -0.7479737154E-12  -0.5382452467E-12   0.1774149957E-15  -0.9100124295E-13  -0.8889878000E-13
   0.2100000000E+01   0.9750500000E+00   0.9363169962E-14   0.1000000000E+00  -0.2495000000E-01   0.9363169962E-14   0.0000000000E+00   0.0000000000E+00   0.0000000000E+00   0.5000000007E+01  -0.1066014149E-11  -0.9817693193E-12  -0.9362218247E-13  -0.1412279749E-12  -0.8319409303E-13
   0.2100000000E+01   0.0000000000E+00   0.9750500000E+00   0.1000000000E+00   0.0000000000E+00  -0.2495000000E-01   0.0000000000E+00   0.0000000000E+00   0.0000000000E+00   0.5000000007E+01   0.1040653259E-11   0.1241372409E-11  -0.9493331437E-16  -0.1054814713E-14  -0.8066602309E-13
   0.2100000000E+01   0.9750500000E+00   0.9750500000E+00   0.1000000000E+00  -0.2495000000E-01  -0.2495000000E-01   0.0000000000E+00   0.0000000000E+00   0.0000000000E+00   0.5000000006E+01  -0.2153034365E-12  -0.1400679246E-12  -0.8799144512E-13  -0.5012565563E-13  -0.7430354098E-13
     1     2     3     4     5     6     7     8
     2     9    10     3     6    11    12     7
 VARIABLES = X,Y,Z,DU1,DU2,DU3,U1,U2,U3,S11,S22,S33,S12,S13,S23
 ZONE, T="0.2000D+01" F=FEPOINT, I=   12 J=    2 ET=BRICK
   0.0000000000E+00   0.0000000000E+00   0.0000000000E+00   0.0000000000E+00   0.0000000000E+00   0.0000000000E+00   0.0000000000E+00   0.0000000000E+00   0.0000000000E+00   0.1000000002E+02   0.1722974320E-12   0.1618943666E-12  -0.1213206085E-15  -0.7603396592E-15   0.1007887334E-14
   0.1100000000E+01   0.0000000000E+00   0.1604508299E-16   0.5000000000E-01   0.0000000000E+00  -0.1181693743E-13   0.5000000000E-01   0.0000000000E+00   0.1183298251E-13   0.1000000002E+02  -0.1476835299E-12  -0.1268773982E-12  -0.4823802980E-15   0.3603944797E-14  -0.2287313025E-15
   0.1100000000E+01   0.9501000000E+00   0.5080287087E-17   0.5000000000E-01  -0.2495000000E-01  -0.1216834171E-13   0.5000000000E-01  -0.2495000000E-01   0.1217342199E-13   0.1000000001E+02   0.4922783477E-13   0.7003396645E-13   0.4333991373E-14   0.3213548204E-14  -0.4612392327E-15
   0.0000000000E+00   0.9501000000E+00   0.2484444738E-16   0.0000000000E+00  -0.2495000000E-01  -0.9229905297E-14   0.0000000000E+00  -0.2495000000E-01   0.9254749744E-14   0.1000000001E+02   0.1362601559E-12   0.1258570905E-12  -0.1845280321E-14  -0.1664942941E-14   0.2717239318E-15
   0.0000000000E+00   0.0000000000E+00   0.9501000000E+00   0.0000000000E+00   0.0000000000E+00  -0.2495000000E-01   0.0000000000E+00   0.0000000000E+00  -0.2495000000E-01   0.1000000001E+02  -0.4232647270E-12  -0.4336677924E-12  -0.1183603042E-16   0.6339345897E-15   0.3662132582E-15
   0.1100000000E+01   0.0000000000E+00   0.9501000000E+00   0.5000000000E-01   0.0000000000E+00  -0.2495000000E-01   0.5000000000E-01   0.0000000000E+00  -0.2495000000E-01   0.1000000001E+02  -0.1319057305E-13   0.7615558637E-14   0.8197152238E-15  -0.3586437872E-14  -0.2945293356E-15
   0.1100000000E+01   0.9501000000E+00   0.9501000000E+00   0.5000000000E-01  -0.2495000000E-01  -0.2495000000E-01   0.5000000000E-01  -0.2495000000E-01  -0.2495000000E-01   0.1000000001E+02  -0.1573396710E-12  -0.1365335393E-12   0.7132713592E-14  -0.1122813999E-14   0.3499578460E-16
   0.0000000000E+00   0.9501000000E+00   0.9501000000E+00   0.0000000000E+00  -0.2495000000E-01  -0.2495000000E-01   0.0000000000E+00  -0.2495000000E-01  -0.2495000000E-01   0.1000000001E+02  -0.2887717789E-12  -0.2991748443E-12  -0.1771744366E-14   0.2568004695E-15  -0.1513308071E-15
   0.2200000000E+01   0.0000000000E+00   0.1717287497E-15   0.1000000000E+00   0.0000000000E+00  -0.1185848451E-13   0.1000000000E+00   0.0000000000E+00   0.1203021325E-13   0.1000000002E+02  -0.8807995032E-12  -0.1025695539E-11   0.3432642615E-15   0.4828642102E-14  -0.1388890783E-14
   0.2200000000E+01   0.9501000000E+00   0.1275923228E-15   0.1000000000E+00  -0.2495000000E-01  -0.9235577639E-14   0.1000000000E+00  -0.2495000000E-01   0.9363169962E-14   0.1000000001E+02   0.2311814272E-12   0.8628539137E-13   0.1191581195E-13   0.5366057687E-14   0.2667049301E-15
   0.2200000000E+01   0.0000000000E+00   0.9501000000E+00   0.1000000000E+00   0.0000000000E+00  -0.2495000000E-01   0.1000000000E+00   0.0000000000E+00  -0.2495000000E-01   0.1000000001E+02   0.3248090319E-12   0.1799129960E-12  -0.6783276477E-15  -0.5932708742E-14  -0.1236212730E-15
   0.2200000000E+01   0.9501000000E+00   0.9501000000E+00   0.1000000000E+00  -0.2495000000E-01  -0.2495000000E-01   0.1000000000E+00  -0.2495000000E-01  -0.2495000000E-01   0.1000000001E+02   0.5841388130E-12   0.4392427772E-12   0.1475024613E-13  -0.8332630350E-14   0.2662918675E-14
     1     2     3     4     5     6     7     8
     2     9    10     3     6    11    12     7
 VARIABLES = X,Y,Z,DU1,DU2,DU3,U1,U2,U3,S11,S22,S33,S12,S13,S23
 ZONE, T="0.3000D+01" F=FEPOINT, I=   12 J=    2 ET=BRICK
   0.0000000000E+00   0.0000000000E+00   0.0000000000E+00   0.0000000000E+00   0.0000000000E+00   0.0000000000E+00   0.0000000000E+00   0.0000000000E+00   0.0000000000E+00   0.1500000002E+02  -0.2156769421E-12  -0.6399619570E-12   0.1600146741E-15  -0.2638903918E-13  -0.1081269478E-14
   0.1150000000E+01   0.0000000000E+00  -0.5239061015E-15   0.5000000000E-01   0.0000000000E+00  -0.5399511845E-15   0.1000000000E+00   0.0000000000E+00   0.1604508299E-16   0.1500000002E+02  -0.9470256993E-12  -0.4395161577E-12  -0.7884394087E-15   0.9788367025E-15  -0.4864659131E-15
   0.1150000000E+01   0.9251500000E+00  -0.5369112010E-15   0.5000000000E-01  -0.2495000000E-01  -0.5419914881E-15   0.1000000000E+00  -0.4990000000E-01   0.5080287087E-17   0.1500000002E+02   0.8638011470E-12   0.8333388614E-12  -0.8915235072E-15  -0.9723386836E-15  -0.4298947031E-15
   0.0000000000E+00   0.9251500000E+00  -0.1770351051E-16   0.0000000000E+00  -0.2495000000E-01  -0.4254795789E-16   0.0000000000E+00  -0.4990000000E-01   0.2484444738E-16   0.1500000002E+02  -0.2806826327E-12  -0.5608185496E-12  -0.5127833284E-13  -0.2608164028E-13   0.7944888468E-15
   0.0000000000E+00   0.0000000000E+00   0.9251500000E+00   0.0000000000E+00   0.0000000000E+00  -0.2495000000E-01   0.0000000000E+00   0.0000000000E+00  -0.4990000000E-01   0.1500000002E+02   0.2141830663E-12  -0.2101019486E-12  -0.2626711529E-15   0.2605887523E-13  -0.3053202317E-16
   0.1150000000E+01   0.0000000000E+00   0.9251500000E+00   0.5000000000E-01   0.0000000000E+00  -0.2495000000E-01   0.1000000000E+00   0.0000000000E+00  -0.4990000000E-01   0.1500000002E+02  -0.8749511502E-12  -0.3674416087E-12  -0.1125051400E-14   0.1284755663E-16   0.1579827264E-14
   0.1150000000E+01   0.9251500000E+00   0.9251500000E+00   0.5000000000E-01  -0.2495000000E-01  -0.2495000000E-01   0.1000000000E+00  -0.4990000000E-01  -0.4990000000E-01   0.1500000002E+02   0.2537547708E-12   0.2232924852E-12  -0.1883138143E-14  -0.4360957690E-15  -0.7276949806E-15
   0.0000000000E+00   0.9251500000E+00   0.9251500000E+00   0.0000000000E+00  -0.2495000000E-01  -0.2495000000E-01   0.0000000000E+00  -0.4990000000E-01  -0.4990000000E-01   0.1500000002E+02   0.4902378236E-12   0.2101019067E-12  -0.5395989573E-13   0.2698315164E-13   0.1031657073E-14
   0.2300000000E+01   0.0000000000E+00  -0.2003092073E-16   0.1000000000E+00   0.0000000000E+00  -0.1917596704E-15   0.2000000000E+00   0.0000000000E+00   0.1717287497E-15   0.1500000002E+02  -0.6445897480E-13  -0.4887439897E-12  -0.3934967787E-15   0.2836062174E-13   0.5403969641E-15
   0.2300000000E+01   0.9251500000E+00  -0.8746521467E-17   0.1000000000E+00  -0.2495000000E-01  -0.1363388443E-15   0.2000000000E+00  -0.4990000000E-01   0.1275923228E-15   0.1500000002E+02   0.8937167076E-12   0.6135807907E-12   0.4976736081E-13   0.2583172732E-13   0.6008028606E-16
   0.2300000000E+01   0.0000000000E+00   0.9251500000E+00   0.1000000000E+00   0.0000000000E+00  -0.2495000000E-01   0.2000000000E+00   0.0000000000E+00  -0.4990000000E-01   0.1500000002E+02   0.3319510399E-12  -0.9233397493E-13   0.2052381258E-16  -0.2607429617E-13  -0.3030963270E-15
   0.2300000000E+01   0.9251500000E+00   0.9251500000E+00   0.1000000000E+00  -0.2495000000E-01  -0.2495000000E-01   0.2000000000E+00  -0.4990000000E-01  -0.4990000000E-01   0.1500000002E+02  -0.4151755758E-12  -0.6953114927E-12   0.5270873547E-13  -0.2636593562E-13   0.9394060931E-15
     1     2     3     4     5     6     7     8
     2     9    10     3     6    11    12     7
